
Gurobi 11.0.3 (linux64) logging started Fri Nov 22 11:38:15 2024

Set parameter LogFile to value "/home/yihong/Coding/OR_SUC/SUC_results_bigM100000_thread4/case24_ieee_rts_theta0.1_epsilon0.05_gurobi_seed490000_num_gen100_N_WDR100_load_scaling_factor1_proposed_T28quadra_cost.txt"
Set parameter TimeLimit to value 3600
Gurobi Optimizer version 11.0.3 build v11.0.3rc0 (linux64 - "Ubuntu 20.04.6 LTS")

CPU model: AMD EPYC 7532 32-Core Processor, instruction set [SSE2|AVX|AVX2]
Thread count: 64 physical cores, 128 logical processors, using up to 4 threads

Optimize a model with 67234 rows, 34821 columns and 1535514 nonzeros
Model fingerprint: 0x663cbe80
Model has 2800 quadratic constraints
Variable types: 32021 continuous, 2800 integer (2800 binary)
Coefficient statistics:
  Matrix range     [3e-04, 2e+03]
  QMatrix range    [2e-03, 8e-03]
  QLMatrix range   [2e-01, 6e+01]
  Objective range  [1e+00, 1e+00]
  Bounds range     [1e+00, 1e+00]
  RHS range        [1e+00, 9e+03]
Presolve removed 54910 rows and 14728 columns
Presolve time: 0.47s
Presolved: 12324 rows, 20093 columns, 68350 nonzeros
Presolved model has 2800 quadratic constraint(s)
Variable types: 17293 continuous, 2800 integer (2800 binary)

Root relaxation: objective 4.044276e+04, 10025 iterations, 0.36 seconds (0.52 work units)

    Nodes    |    Current Node    |     Objective Bounds      |     Work
 Expl Unexpl |  Obj  Depth IntInf | Incumbent    BestBd   Gap | It/Node Time

     0     0 40442.7634    0   28          - 40442.7634      -     -    0s
     0     0 365512.717    0  847          - 365512.717      -     -    1s
     0     0 434125.588    0  853          - 434125.588      -     -    1s
     0     0 747391.678    0  834          - 747391.678      -     -    2s
     0     0 747455.457    0  592          - 747455.457      -     -    2s
     0     0 747780.583    0  487          - 747780.583      -     -    2s
     0     0 747784.014    0  487          - 747784.014      -     -    2s
     0     0 747784.014    0  508          - 747784.014      -     -    2s
     0     0 747784.438    0  508          - 747784.438      -     -    2s
     0     2 747784.471    0  508          - 747784.471      -     -    5s
H  929   369                    748053.37454 747821.139  0.03%  15.8    7s
*  929   369             238    748053.37454 747821.139  0.03%  15.8    7s

Cutting planes:
  Gomory: 1
  Implied bound: 385
  MIR: 88
  Flow cover: 149

Explored 978 nodes (42477 simplex iterations) in 8.11 seconds (10.20 work units)
Thread count was 4 (of 128 available processors)

Solution count 2: 748053 748053 

Optimal solution found (tolerance 1.00e-03)
Warning: max constraint violation (1.8321e-07) exceeds tolerance
Best objective 7.480533745450e+05, best bound 7.478211386715e+05, gap 0.0310%
